(set-info :source  loris-7.ddns.comp.nus.edu.sg/~project/hip/) 
;Variables declarations
(declare-fun right_151_2953_primed () Int)
(declare-fun Anon_19 () Int)
(declare-fun left_151_2952_primed () Int)
(declare-fun height_151_2951_primed () Int)
(declare-fun Anon_17 () Int)
(declare-fun val_151_2950_primed () Int)
(declare-fun Anon_16 () Int)
(declare-fun left_150_3764 () Int)
(declare-fun Anon_18 () Int)
(declare-fun x_primed () Int)
(declare-fun x () Int)
(declare-fun y_primed () Int)
(declare-fun z_primed () Int)
(declare-fun ny () Int)
(declare-fun my () Int)
(declare-fun y () Int)
(declare-fun ny_3763 () Int)
(declare-fun mz () Int)
(declare-fun z () Int)
;Relations declarations
;Axioms assertions
;Antecedent
(assert (= right_151_2953_primed Anon_19))
(assert (= left_151_2952_primed y_primed))
(assert (= height_151_2951_primed Anon_17))
(assert (= val_151_2950_primed Anon_16))
(assert (= left_150_3764 Anon_18))
(assert (= x_primed x))
(assert (= y_primed y))
(assert (= z_primed z))
(assert (> y 0))
(assert (= ny_3763 ny))
(assert (or (and (and (< y 1) (= my 0)) (= ny 0)) (and (and (<= 1 ny) (<= 1 my)) (> y 0))))
(assert (or (and (and (< z 1) (= mz 0)) (= ny_3763 0)) (and (and (<= 1 ny_3763) (<= 1 mz)) (> z 0))))
;Negation of Consequence
(assert (not false))
(check-sat)